Fe444
2.8298
4.0  0.0  0.0
0.0  4.0  0.0
0.0  0.0  4.0
   Fe
  128
Direct
     0.000000000         0.000000000         0.000000000
     0.125000000         0.125000000         0.125000000
     0.000000000         0.000000000         0.250000000
     0.000000000         0.000000000         0.750000000
     0.250000000         0.000000000         0.000000000
     0.750000000         0.000000000         0.000000000
     0.000000000         0.250000000         0.000000000
     0.000000000         0.750000000         0.000000000
     0.125000000         0.125000000         0.375000000
     0.125000000         0.125000000         0.875000000
     0.375000000         0.125000000         0.125000000
     0.875000000         0.125000000         0.125000000
     0.125000000         0.375000000         0.125000000
     0.125000000         0.875000000         0.125000000
     0.000000000         0.000000000         0.500000000
     0.500000000         0.000000000         0.000000000
     0.000000000         0.500000000         0.000000000
     0.125000000         0.125000000         0.625000000
     0.625000000         0.125000000         0.125000000
     0.125000000         0.625000000         0.125000000
     0.000000000         0.250000000         0.250000000
     0.000000000         0.750000000         0.750000000
     0.000000000         0.750000000         0.250000000
     0.000000000         0.250000000         0.750000000
     0.250000000         0.000000000         0.250000000
     0.750000000         0.000000000         0.750000000
     0.250000000         0.000000000         0.750000000
     0.750000000         0.000000000         0.250000000
     0.250000000         0.250000000         0.000000000
     0.750000000         0.750000000         0.000000000
     0.750000000         0.250000000         0.000000000
     0.250000000         0.750000000         0.000000000
     0.125000000         0.375000000         0.375000000
     0.125000000         0.875000000         0.875000000
     0.125000000         0.875000000         0.375000000
     0.125000000         0.375000000         0.875000000
     0.375000000         0.125000000         0.375000000
     0.875000000         0.125000000         0.875000000
     0.375000000         0.125000000         0.875000000
     0.875000000         0.125000000         0.375000000
     0.375000000         0.375000000         0.125000000
     0.875000000         0.875000000         0.125000000
     0.875000000         0.375000000         0.125000000
     0.375000000         0.875000000         0.125000000
     0.000000000         0.250000000         0.500000000
     0.000000000         0.750000000         0.500000000
     0.500000000         0.000000000         0.250000000
     0.500000000         0.000000000         0.750000000
     0.250000000         0.500000000         0.000000000
     0.750000000         0.500000000         0.000000000
     0.250000000         0.000000000         0.500000000
     0.750000000         0.000000000         0.500000000
     0.000000000         0.500000000         0.750000000
     0.000000000         0.500000000         0.250000000
     0.500000000         0.250000000         0.000000000
     0.500000000         0.750000000         0.000000000
     0.125000000         0.375000000         0.625000000
     0.125000000         0.875000000         0.625000000
     0.625000000         0.125000000         0.375000000
     0.625000000         0.125000000         0.875000000
     0.375000000         0.625000000         0.125000000
     0.875000000         0.625000000         0.125000000
     0.375000000         0.125000000         0.625000000
     0.875000000         0.125000000         0.625000000
     0.125000000         0.625000000         0.875000000
     0.125000000         0.625000000         0.375000000
     0.625000000         0.375000000         0.125000000
     0.625000000         0.875000000         0.125000000
     0.000000000         0.500000000         0.500000000
     0.500000000         0.000000000         0.500000000
     0.500000000         0.500000000         0.000000000
     0.125000000         0.625000000         0.625000000
     0.625000000         0.125000000         0.625000000
     0.625000000         0.625000000         0.125000000
     0.250000000         0.250000000         0.250000000
     0.750000000         0.750000000         0.750000000
     0.750000000         0.750000000         0.250000000
     0.250000000         0.250000000         0.750000000
     0.750000000         0.250000000         0.750000000
     0.250000000         0.750000000         0.250000000
     0.250000000         0.750000000         0.750000000
     0.750000000         0.250000000         0.250000000
     0.375000000         0.375000000         0.375000000
     0.875000000         0.875000000         0.875000000
     0.875000000         0.875000000         0.375000000
     0.375000000         0.375000000         0.875000000
     0.875000000         0.375000000         0.875000000
     0.375000000         0.875000000         0.375000000
     0.375000000         0.875000000         0.875000000
     0.875000000         0.375000000         0.375000000
     0.250000000         0.250000000         0.500000000
     0.750000000         0.750000000         0.500000000
     0.750000000         0.250000000         0.500000000
     0.250000000         0.750000000         0.500000000
     0.500000000         0.250000000         0.250000000
     0.500000000         0.750000000         0.750000000
     0.500000000         0.750000000         0.250000000
     0.500000000         0.250000000         0.750000000
     0.250000000         0.500000000         0.250000000
     0.750000000         0.500000000         0.750000000
     0.250000000         0.500000000         0.750000000
     0.750000000         0.500000000         0.250000000
     0.375000000         0.375000000         0.625000000
     0.875000000         0.875000000         0.625000000
     0.875000000         0.375000000         0.625000000
     0.375000000         0.875000000         0.625000000
     0.625000000         0.375000000         0.375000000
     0.625000000         0.875000000         0.875000000
     0.625000000         0.875000000         0.375000000
     0.625000000         0.375000000         0.875000000
     0.375000000         0.625000000         0.375000000
     0.875000000         0.625000000         0.875000000
     0.375000000         0.625000000         0.875000000
     0.875000000         0.625000000         0.375000000
     0.250000000         0.500000000         0.500000000
     0.750000000         0.500000000         0.500000000
     0.500000000         0.250000000         0.500000000
     0.500000000         0.750000000         0.500000000
     0.500000000         0.500000000         0.250000000
     0.500000000         0.500000000         0.750000000
     0.375000000         0.625000000         0.625000000
     0.875000000         0.625000000         0.625000000
     0.625000000         0.375000000         0.625000000
     0.625000000         0.875000000         0.625000000
     0.625000000         0.625000000         0.375000000
     0.625000000         0.625000000         0.875000000
     0.500000000         0.500000000         0.500000000
     0.625000000         0.625000000         0.625000000
